47
1000
200	1
199	1
198	4
197	2
196	1
195	4
194	2
193	3
192	2
191	1
190	6
189	3
188	2
185	2
184	4
183	1
182	2
181	3
180	4
179	2
178	2
177	3
176	5
175	7
174	1
173	2
172	2
171	1
170	4
169	1
168	3
167	1
166	3
165	3
164	3
163	3
162	2
161	2
159	3
158	3
157	1
156	1
155	3
153	4
152	3
151	2
150	2
